p tw 152 394
0 1
0 47
0 120
0 145
1 7
1 48
1 121
1 139
2 3
2 95
2 110
2 140
3 94
3 99
3 100
4 5
4 6
4 7
4 76
4 143
5 6
5 7
5 13
5 81
6 7
6 12
6 71
6 82
6 122
7 48
7 121
7 139
8 9
8 65
8 66
8 67
9 64
9 150
9 151
10 11
10 12
10 13
10 92
10 99
10 109
10 110
11 12
11 13
11 61
11 69
12 13
12 71
12 82
12 122
13 81
14 15
14 34
14 131
15 27
15 28
15 29
16 17
16 18
16 19
16 31
17 18
17 19
17 32
18 19
18 33
18 35
18 46
18 141
19 30
19 45
19 104
20 21
20 22
20 23
20 53
21 22
21 23
21 54
21 108
21 111
21 147
22 23
22 55
23 56
23 123
23 130
24 25
24 26
24 49
24 50
24 51
24 52
25 26
25 83
26 84
26 103
26 116
26 138
27 28
27 29
27 77
27 131
27 132
28 29
28 105
28 116
28 117
29 106
29 137
29 138
30 31
30 32
30 33
30 45
30 104
31 32
31 33
32 33
33 35
33 46
33 141
34 35
34 36
34 37
34 131
35 36
35 37
35 46
35 141
36 37
36 126
36 129
37 77
37 78
37 79
37 80
38 39
38 114
38 136
38 146
39 57
39 58
39 59
40 41
40 42
40 111
40 112
41 42
41 102
41 103
42 133
43 44
43 107
43 108
44 113
44 147
45 46
45 104
46 141
47 48
47 120
47 145
48 121
48 139
49 50
49 51
49 52
49 85
49 86
49 87
50 51
50 52
50 72
50 73
50 74
51 52
51 83
51 84
52 97
52 98
53 54
53 55
53 56
54 55
54 56
54 108
54 111
54 147
55 56
56 123
56 130
57 58
57 59
57 136
58 59
58 90
58 107
58 113
58 114
59 75
59 142
59 146
60 61
60 68
60 74
60 87
61 69
62 63
62 64
62 65
62 134
63 64
63 65
63 101
64 65
64 150
64 151
65 66
65 67
66 67
66 151
67 101
67 125
67 134
67 150
68 69
68 70
68 71
68 74
68 87
69 70
69 71
70 71
70 88
70 98
70 115
70 144
71 82
71 122
72 73
72 74
72 85
73 74
73 86
74 87
75 76
75 142
75 146
76 143
77 78
77 79
77 80
77 131
77 132
78 79
78 80
78 125
78 126
78 127
79 80
79 128
79 130
79 135
80 129
81 82
82 122
83 84
84 103
84 116
84 138
85 86
85 87
86 87
88 89
88 90
88 98
88 115
88 144
89 90
89 96
89 97
90 107
90 113
90 114
91 92
91 93
91 94
91 95
92 99
92 109
92 110
93 94
93 95
93 109
94 95
94 99
94 100
95 110
95 140
96 97
96 115
97 98
98 115
98 144
99 100
99 109
99 110
100 140
101 125
101 134
101 150
102 103
102 112
102 132
102 133
102 135
103 116
103 138
104 141
105 106
105 116
105 117
106 137
106 138
107 108
107 113
107 114
108 111
108 147
109 110
110 140
111 112
111 147
112 132
112 133
112 135
113 114
113 147
114 136
114 146
115 144
116 117
116 138
117 137
118 119
118 120
118 121
118 148
119 120
119 121
119 149
120 121
120 145
121 139
122 142
122 143
122 144
123 124
123 130
124 127
124 128
125 126
125 127
125 134
125 150
126 127
126 129
127 128
128 130
128 135
130 135
131 132
132 133
132 135
133 135
134 150
136 146
137 138
139 145
139 148
139 149
142 143
142 144
142 146
143 144
145 148
145 149
148 149
150 151
